c Choco e747e1e
v <instantiation id='sol1' type='solution' ><list>Leslie Holly Andrea Julie Victoria Wilson Miller Davis Brown Lopes Red Blue White Yellow Green Argentine Italian Chilean Australian Bordeaux Farfalle Lasagne Penne Spaghetti Ravioli y30 y35 y40 y45 y50 </list><values>1 5 3 4 2 5 4 2 1 3 2 3 5 1 4 1 4 2 5 3 2 5 1 3 4 3 4 5 1 2 </values></instantiation>

s SATISFIABLE
v <instantiation id='sol1' type='solution' ><list>Leslie Holly Andrea Julie Victoria Wilson Miller Davis Brown Lopes Red Blue White Yellow Green Argentine Italian Chilean Australian Bordeaux Farfalle Lasagne Penne Spaghetti Ravioli y30 y35 y40 y45 y50 </list><values>1 5 3 4 2 5 4 2 1 3 2 3 5 1 4 1 4 2 5 3 2 5 1 3 4 3 4 5 1 2 </values></instantiation>
d FOUND SOLUTIONS 1

